args: ../partial/bp/M8.cnf cubes/M8.cubes 100 50 12
iteration: 0
running icadical
lim: 100
refuted: 9965, progress: 9965/38255

iteration: 1
running icadical
lim: 100
refuted: 8019, progress: 17984/38255

iteration: 2
running icadical
lim: 100
refuted: 15226, progress: 33210/38255

iteration: 3
running icadical
lim: 100
refuted: 5045, progress: 38255/38255

c --- [ banner ] -------------------------------------------------------------
c 
c CaDiCaL Radically Simplified CDCL SAT Solver
c Copyright (c) 2016-2019 Armin Biere, JKU Linz
c 
c Version 1.2.1 92d72896c49b30ad2d50c8e1061ca0681cd23e60
c g++ (GCC) 4.8.5 20150623 (Red Hat 4.8.5-39) -Wall -Wextra -O3 -DNDEBUG -std=c++0x
c Thu Jan 30 22:37:32 EST 2020 Linux lov6.int.autonlab.org 3.10.0-1062.4.1.el7.x86_64 x86_64
c 
c --- [ parsing input ] ------------------------------------------------------
c 
c reading DIMACS file from '<stdin>' (use '-h' for a list of common options)
c found 'p cnf 1337 28408' header
c parsed 66663 clauses in 0.13 seconds process time
c disconnecting from '<stdin>'
c after reading 1055877 bytes 1.0 MB
c 
c --- [ options ] ------------------------------------------------------------
c 
c   --report=false                 (different from default 'true')
c 
c --- [ solving ] ------------------------------------------------------------
c 
c 
c --- [ result ] -------------------------------------------------------------
c 
s UNSATISFIABLE
c 
c --- [ run-time profiling ] -------------------------------------------------
c 
c process time taken by individual solving procedures
c (percentage relative to process time for solving)
c 
c         0.00   91.51% search
c         0.00   59.45% unstable
c         0.00   30.57% lucky
c         0.00    0.00% simplify
c   =================================
c         0.00    0.35% solve
c 
c last line shows process time for solving
c (percentage relative to total process time)
c 
c --- [ statistics ] ---------------------------------------------------------
c 
c chronological:                 3        42.86 %  of conflicts
c conflicts:                     7     14862.00    per second
c decisions:                     9     19108.28    per second
c fixed:                       672        50.26 %  of all variables
c learned:                       6        85.71 %  per conflict
c minimized:                     0         0.00 %  learned literals
c propagations:                 30         0.06 M  per second
c restarts:                      1         7.00    interval
c 
c seconds are measured in process time for solving
c 
c --- [ resources ] ----------------------------------------------------------
c 
c total process time since initialization:         0.13    seconds
c total real time since initialization:            0.19    seconds
c maximum resident set size of process:            7.70    MB
c 
c --- [ shutting down ] ------------------------------------------------------
c 
c exit 20

real	0m44.404s
user	7m34.325s
sys	0m14.032s
